networks/zoo_36_123/zoo_36_123.sol
<?xml version = "1.0" encoding="UTF-8" standalone="yes"?>
<CPLEXSolution version="1.2">
 <header
   problemName="networks/zoo_36_123/zoo_36_123.lp"
   solutionName="incumbent"
   solutionIndex="-1"
   objectiveValue="14"
   solutionTypeValue="3"
   solutionTypeString="primal"
   solutionStatusValue="101"
   solutionStatusString="integer optimal solution"
   solutionMethodString="mip"
   primalFeasible="1"
   dualFeasible="1"
   MIPNodes="0"
   MIPIterations="1009"
   writeLevel="3"/>
 <quality
   epInt="1.0000000000000001e-05"
   epRHS="9.9999999999999995e-07"
   maxIntInfeas="0"
   maxPrimalInfeas="0"
   maxX="4"
   maxSlack="10"/>
 <variables>
  <variable name="Y(5,13)" index="140" value="1"/>
  <variable name="Y(8,18)" index="241" value="1"/>
  <variable name="Y(39,15)" index="1230" value="1"/>
  <variable name="Y(40,2)" index="1249" value="1"/>
  <variable name="Y(54,17)" index="1712" value="1"/>
  <variable name="Y(59,12)" index="1867" value="1"/>
  <variable name="Y(72,16)" index="2287" value="1"/>
  <variable name="Y(76,3)" index="2402" value="1"/>
  <variable name="Y(105,11)" index="3338" value="1"/>
  <variable name="Y(113,5)" index="3588" value="1"/>
  <variable name="Y(114,8)" index="3623" value="1"/>
  <variable name="Y(115,9)" index="3656" value="1"/>
  <variable name="Y(116,10)" index="3689" value="1"/>
  <variable name="Y(120,14)" index="3821" value="1"/>
  <variable name="X(1,2,40)" index="3975" value="1"/>
  <variable name="X(1,5,113)" index="4171" value="1"/>
  <variable name="X(2,1,113)" index="4294" value="1"/>
  <variable name="X(2,17,54)" index="4358" value="1"/>
  <variable name="X(2,20,40)" index="4467" value="1"/>
  <variable name="X(3,4,39)" index="4589" value="1"/>
  <variable name="X(3,21,76)" index="4749" value="1"/>
  <variable name="X(4,3,76)" index="4872" value="1"/>
  <variable name="X(4,18,39)" index="4958" value="1"/>
  <variable name="X(5,1,40)" index="5082" value="1"/>
  <variable name="X(5,8,114)" index="5279" value="1"/>
  <variable name="X(5,23,113)" index="5401" value="1"/>
  <variable name="X(6,3,39)" index="5450" value="1"/>
  <variable name="X(7,8,40)" index="5574" value="1"/>
  <variable name="X(8,5,40)" index="5697" value="1"/>
  <variable name="X(8,26,114)" index="5894" value="1"/>
  <variable name="X(9,10,116)" index="6019" value="1"/>
  <variable name="X(9,12,59)" index="6085" value="1"/>
  <variable name="X(9,27,115)" index="6264" value="1"/>
  <variable name="X(10,9,59)" index="6331" value="1"/>
  <variable name="X(10,28,116)" index="6511" value="1"/>
  <variable name="X(11,12,115)" index="6633" value="1"/>
  <variable name="X(11,14,72)" index="6713" value="1"/>
  <variable name="X(11,29,105)" index="6869" value="1"/>
  <variable name="X(12,9,115)" index="7002" value="1"/>
  <variable name="X(12,11,72)" index="7082" value="1"/>
  <variable name="X(12,30,59)" index="7192" value="1"/>
  <variable name="X(13,14,120)" index="7376" value="1"/>
  <variable name="X(13,16,72)" index="7451" value="1"/>
  <variable name="X(13,31,5)" index="7507" value="1"/>
  <variable name="X(14,11,105)" index="7730" value="1"/>
  <variable name="X(14,13,72)" index="7820" value="1"/>
  <variable name="X(14,32,120)" index="7991" value="1"/>
  <variable name="X(15,16,120)" index="8114" value="1"/>
  <variable name="X(15,18,76)" index="8193" value="1"/>
  <variable name="X(15,33,39)" index="8279" value="1"/>
  <variable name="X(16,13,120)" index="8483" value="1"/>
  <variable name="X(16,15,76)" index="8562" value="1"/>
  <variable name="X(16,34,72)" index="8681" value="1"/>
  <variable name="X(17,2,113)" index="8845" value="1"/>
  <variable name="X(17,18,8)" index="8863" value="1"/>
  <variable name="X(17,35,54)" index="9032" value="1"/>
  <variable name="X(18,4,76)" index="9177" value="1"/>
  <variable name="X(18,15,39)" index="9263" value="1"/>
  <variable name="X(18,17,113)" index="9460" value="1"/>
  <variable name="X(18,36,8)" index="9478" value="1"/>
  <variable name="C(8,18)" index="9633" value="1"/>
  <variable name="C(39,3)" index="9806" value="1"/>
  <variable name="C(39,4)" index="9807" value="2"/>
  <variable name="C(39,18)" index="9808" value="3"/>
  <variable name="C(39,15)" index="9809" value="4"/>
  <variable name="C(40,8)" index="9811" value="1"/>
  <variable name="C(40,5)" index="9812" value="2"/>
  <variable name="C(40,1)" index="9813" value="3"/>
  <variable name="C(40,2)" index="9814" value="4"/>
  <variable name="C(54,17)" index="9927" value="1"/>
  <variable name="C(59,9)" index="9971" value="1"/>
  <variable name="C(59,12)" index="9972" value="2"/>
  <variable name="C(72,11)" index="10053" value="1"/>
  <variable name="C(72,14)" index="10054" value="2"/>
  <variable name="C(72,13)" index="10055" value="3"/>
  <variable name="C(72,16)" index="10056" value="4"/>
  <variable name="C(76,15)" index="10080" value="1"/>
  <variable name="C(76,18)" index="10081" value="2"/>
  <variable name="C(76,4)" index="10082" value="3"/>
  <variable name="C(76,3)" index="10083" value="4"/>
  <variable name="C(105,11)" index="10217" value="1"/>
  <variable name="C(113,17)" index="10247" value="1"/>
  <variable name="C(113,2)" index="10248" value="2"/>
  <variable name="C(113,1)" index="10249" value="3"/>
  <variable name="C(113,5)" index="10250" value="4"/>
  <variable name="C(114,8)" index="10256" value="1"/>
  <variable name="C(115,12)" index="10263" value="1"/>
  <variable name="C(115,9)" index="10264" value="2"/>
  <variable name="C(116,10)" index="10273" value="1"/>
  <variable name="C(120,16)" index="10293" value="1"/>
  <variable name="C(120,13)" index="10294" value="2"/>
  <variable name="C(120,14)" index="10295" value="3"/>
 </variables>
</CPLEXSolution>
